p cnf 247 2169
-1 3 0
-3 1 0
-1 29 0
-29 1 0
-4 7 0
-7 4 0
-4 36 0
-36 4 0
-8 14 0
-14 8 0
-8 49 0
-49 8 0
-15 21 0
-21 15 0
-15 62 0
-62 15 0
-26 30 0
-30 26 0
-26 78 0
-78 26 0
-31 37 0
-37 31 0
-31 91 0
-91 31 0
-38 50 0
-50 38 0
-38 113 0
-113 38 0
-51 63 0
-63 51 0
-51 132 0
-132 51 0
-72 79 0
-79 72 0
-72 151 0
-151 72 0
-80 92 0
-92 80 0
-80 164 0
-164 80 0
-93 114 0
-114 93 0
-93 183 0
-183 93 0
-115 133 0
-133 115 0
-115 199 0
-199 115 0
-145 152 0
-152 145 0
-145 213 0
-213 145 0
-153 165 0
-165 153 0
-153 222 0
-222 153 0
-166 184 0
-184 166 0
-166 234 0
-234 166 0
-185 200 0
-200 185 0
-185 243 0
-243 185 0
-2 5 0
-5 2 0
-2 27 0
-27 2 0
-2 32 0
-32 2 0
-6 9 0
-9 6 0
-6 33 0
-33 6 0
-6 39 0
-39 6 0
-10 16 0
-16 10 0
-10 40 0
-40 10 0
-10 52 0
-52 10 0
-17 22 0
-22 17 0
-17 53 0
-53 17 0
-17 64 0
-64 17 0
-28 34 0
-34 28 0
-28 73 0
-73 28 0
-28 81 0
-81 28 0
-35 41 0
-41 35 0
-35 82 0
-82 35 0
-35 94 0
-94 35 0
-42 54 0
-54 42 0
-42 95 0
-95 42 0
-42 116 0
-116 42 0
-55 65 0
-65 55 0
-55 117 0
-117 55 0
-55 134 0
-134 55 0
-74 83 0
-83 74 0
-74 146 0
-146 74 0
-74 154 0
-154 74 0
-84 96 0
-96 84 0
-84 155 0
-155 84 0
-84 167 0
-167 84 0
-97 118 0
-118 97 0
-97 168 0
-168 97 0
-97 186 0
-186 97 0
-119 135 0
-135 119 0
-119 187 0
-187 119 0
-119 201 0
-201 119 0
-147 156 0
-156 147 0
-147 209 0
-209 147 0
-147 214 0
-214 147 0
-157 169 0
-169 157 0
-157 215 0
-215 157 0
-157 223 0
-223 157 0
-170 188 0
-188 170 0
-170 224 0
-224 170 0
-170 235 0
-235 170 0
-189 202 0
-202 189 0
-189 236 0
-236 189 0
-189 244 0
-244 189 0
-11 43 0
-43 11 0
-11 75 0
-75 11 0
-11 85 0
-85 11 0
-11 98 0
-98 11 0
-18 56 0
-56 18 0
-18 86 0
-86 18 0
-18 99 0
-99 18 0
-18 120 0
-120 18 0
-23 66 0
-66 23 0
-23 100 0
-100 23 0
-23 121 0
-121 23 0
-23 136 0
-136 23 0
-44 101 0
-101 44 0
-44 148 0
-148 44 0
-44 158 0
-158 44 0
-44 171 0
-171 44 0
-57 122 0
-122 57 0
-57 159 0
-159 57 0
-57 172 0
-172 57 0
-57 190 0
-190 57 0
-67 137 0
-137 67 0
-67 173 0
-173 67 0
-67 191 0
-191 67 0
-67 203 0
-203 67 0
-102 174 0
-174 102 0
-102 210 0
-210 102 0
-102 216 0
-216 102 0
-102 225 0
-225 102 0
-123 192 0
-192 123 0
-123 217 0
-217 123 0
-123 226 0
-226 123 0
-123 237 0
-237 123 0
-138 204 0
-204 138 0
-138 227 0
-227 138 0
-138 238 0
-238 138 0
-138 245 0
-245 138 0
-12 45 0
-45 12 0
-12 76 0
-76 12 0
-12 87 0
-87 12 0
-12 103 0
-103 12 0
-19 58 0
-58 19 0
-19 88 0
-88 19 0
-19 104 0
-104 19 0
-19 124 0
-124 19 0
-24 68 0
-68 24 0
-24 105 0
-105 24 0
-24 125 0
-125 24 0
-24 139 0
-139 24 0
-46 106 0
-106 46 0
-46 149 0
-149 46 0
-46 160 0
-160 46 0
-46 175 0
-175 46 0
-59 126 0
-126 59 0
-59 161 0
-161 59 0
-59 176 0
-176 59 0
-59 193 0
-193 59 0
-69 140 0
-140 69 0
-69 177 0
-177 69 0
-69 194 0
-194 69 0
-69 205 0
-205 69 0
-107 178 0
-178 107 0
-107 211 0
-211 107 0
-107 218 0
-218 107 0
-107 228 0
-228 107 0
-127 195 0
-195 127 0
-127 219 0
-219 127 0
-127 229 0
-229 127 0
-127 239 0
-239 127 0
-141 206 0
-206 141 0
-141 230 0
-230 141 0
-141 240 0
-240 141 0
-141 246 0
-246 141 0
-13 47 0
-47 13 0
-13 77 0
-77 13 0
-13 89 0
-89 13 0
-13 108 0
-108 13 0
-20 60 0
-60 20 0
-20 90 0
-90 20 0
-20 109 0
-109 20 0
-20 128 0
-128 20 0
-25 70 0
-70 25 0
-25 110 0
-110 25 0
-25 129 0
-129 25 0
-25 142 0
-142 25 0
-48 111 0
-111 48 0
-48 150 0
-150 48 0
-48 162 0
-162 48 0
-48 179 0
-179 48 0
-61 130 0
-130 61 0
-61 163 0
-163 61 0
-61 180 0
-180 61 0
-61 196 0
-196 61 0
-71 143 0
-143 71 0
-71 181 0
-181 71 0
-71 197 0
-197 71 0
-71 207 0
-207 71 0
-112 182 0
-182 112 0
-112 212 0
-212 112 0
-112 220 0
-220 112 0
-112 231 0
-231 112 0
-131 198 0
-198 131 0
-131 221 0
-221 131 0
-131 232 0
-232 131 0
-131 241 0
-241 131 0
-144 208 0
-208 144 0
-144 233 0
-233 144 0
-144 242 0
-242 144 0
-144 247 0
-247 144 0
-1 -2 0
-3 -4 0
-3 -5 0
-3 -6 0
-4 -5 0
-4 -6 0
-5 -6 0
-7 -8 0
-7 -9 0
-7 -10 0
-7 -11 0
-7 -12 0
-7 -13 0
-8 -9 0
-8 -10 0
-8 -11 0
-8 -12 0
-8 -13 0
-9 -10 0
-9 -11 0
-9 -12 0
-9 -13 0
-10 -11 0
-10 -12 0
-10 -13 0
-11 -12 0
-11 -13 0
-12 -13 0
-14 -15 0
-14 -16 0
-14 -17 0
-14 -18 0
-14 -19 0
-14 -20 0
-15 -16 0
-15 -17 0
-15 -18 0
-15 -19 0
-15 -20 0
-16 -17 0
-16 -18 0
-16 -19 0
-16 -20 0
-17 -18 0
-17 -19 0
-17 -20 0
-18 -19 0
-18 -20 0
-19 -20 0
-21 -22 0
-21 -23 0
-21 -24 0
-21 -25 0
-22 -23 0
-22 -24 0
-22 -25 0
-23 -24 0
-23 -25 0
-24 -25 0
-26 -27 0
-26 -28 0
-27 -28 0
-29 -30 0
-29 -31 0
-29 -32 0
-29 -33 0
-29 -34 0
-29 -35 0
-30 -31 0
-30 -32 0
-30 -33 0
-30 -34 0
-30 -35 0
-31 -32 0
-31 -33 0
-31 -34 0
-31 -35 0
-32 -33 0
-32 -34 0
-32 -35 0
-33 -34 0
-33 -35 0
-34 -35 0
-36 -37 0
-36 -38 0
-36 -39 0
-36 -40 0
-36 -41 0
-36 -42 0
-36 -43 0
-36 -44 0
-36 -45 0
-36 -46 0
-36 -47 0
-36 -48 0
-37 -38 0
-37 -39 0
-37 -40 0
-37 -41 0
-37 -42 0
-37 -43 0
-37 -44 0
-37 -45 0
-37 -46 0
-37 -47 0
-37 -48 0
-38 -39 0
-38 -40 0
-38 -41 0
-38 -42 0
-38 -43 0
-38 -44 0
-38 -45 0
-38 -46 0
-38 -47 0
-38 -48 0
-39 -40 0
-39 -41 0
-39 -42 0
-39 -43 0
-39 -44 0
-39 -45 0
-39 -46 0
-39 -47 0
-39 -48 0
-40 -41 0
-40 -42 0
-40 -43 0
-40 -44 0
-40 -45 0
-40 -46 0
-40 -47 0
-40 -48 0
-41 -42 0
-41 -43 0
-41 -44 0
-41 -45 0
-41 -46 0
-41 -47 0
-41 -48 0
-42 -43 0
-42 -44 0
-42 -45 0
-42 -46 0
-42 -47 0
-42 -48 0
-43 -44 0
-43 -45 0
-43 -46 0
-43 -47 0
-43 -48 0
-44 -45 0
-44 -46 0
-44 -47 0
-44 -48 0
-45 -46 0
-45 -47 0
-45 -48 0
-46 -47 0
-46 -48 0
-47 -48 0
-49 -50 0
-49 -51 0
-49 -52 0
-49 -53 0
-49 -54 0
-49 -55 0
-49 -56 0
-49 -57 0
-49 -58 0
-49 -59 0
-49 -60 0
-49 -61 0
-50 -51 0
-50 -52 0
-50 -53 0
-50 -54 0
-50 -55 0
-50 -56 0
-50 -57 0
-50 -58 0
-50 -59 0
-50 -60 0
-50 -61 0
-51 -52 0
-51 -53 0
-51 -54 0
-51 -55 0
-51 -56 0
-51 -57 0
-51 -58 0
-51 -59 0
-51 -60 0
-51 -61 0
-52 -53 0
-52 -54 0
-52 -55 0
-52 -56 0
-52 -57 0
-52 -58 0
-52 -59 0
-52 -60 0
-52 -61 0
-53 -54 0
-53 -55 0
-53 -56 0
-53 -57 0
-53 -58 0
-53 -59 0
-53 -60 0
-53 -61 0
-54 -55 0
-54 -56 0
-54 -57 0
-54 -58 0
-54 -59 0
-54 -60 0
-54 -61 0
-55 -56 0
-55 -57 0
-55 -58 0
-55 -59 0
-55 -60 0
-55 -61 0
-56 -57 0
-56 -58 0
-56 -59 0
-56 -60 0
-56 -61 0
-57 -58 0
-57 -59 0
-57 -60 0
-57 -61 0
-58 -59 0
-58 -60 0
-58 -61 0
-59 -60 0
-59 -61 0
-60 -61 0
-62 -63 0
-62 -64 0
-62 -65 0
-62 -66 0
-62 -67 0
-62 -68 0
-62 -69 0
-62 -70 0
-62 -71 0
-63 -64 0
-63 -65 0
-63 -66 0
-63 -67 0
-63 -68 0
-63 -69 0
-63 -70 0
-63 -71 0
-64 -65 0
-64 -66 0
-64 -67 0
-64 -68 0
-64 -69 0
-64 -70 0
-64 -71 0
-65 -66 0
-65 -67 0
-65 -68 0
-65 -69 0
-65 -70 0
-65 -71 0
-66 -67 0
-66 -68 0
-66 -69 0
-66 -70 0
-66 -71 0
-67 -68 0
-67 -69 0
-67 -70 0
-67 -71 0
-68 -69 0
-68 -70 0
-68 -71 0
-69 -70 0
-69 -71 0
-70 -71 0
-72 -73 0
-72 -74 0
-72 -75 0
-72 -76 0
-72 -77 0
-73 -74 0
-73 -75 0
-73 -76 0
-73 -77 0
-74 -75 0
-74 -76 0
-74 -77 0
-75 -76 0
-75 -77 0
-76 -77 0
-78 -79 0
-78 -80 0
-78 -81 0
-78 -82 0
-78 -83 0
-78 -84 0
-78 -85 0
-78 -86 0
-78 -87 0
-78 -88 0
-78 -89 0
-78 -90 0
-79 -80 0
-79 -81 0
-79 -82 0
-79 -83 0
-79 -84 0
-79 -85 0
-79 -86 0
-79 -87 0
-79 -88 0
-79 -89 0
-79 -90 0
-80 -81 0
-80 -82 0
-80 -83 0
-80 -84 0
-80 -85 0
-80 -86 0
-80 -87 0
-80 -88 0
-80 -89 0
-80 -90 0
-81 -82 0
-81 -83 0
-81 -84 0
-81 -85 0
-81 -86 0
-81 -87 0
-81 -88 0
-81 -89 0
-81 -90 0
-82 -83 0
-82 -84 0
-82 -85 0
-82 -86 0
-82 -87 0
-82 -88 0
-82 -89 0
-82 -90 0
-83 -84 0
-83 -85 0
-83 -86 0
-83 -87 0
-83 -88 0
-83 -89 0
-83 -90 0
-84 -85 0
-84 -86 0
-84 -87 0
-84 -88 0
-84 -89 0
-84 -90 0
-85 -86 0
-85 -87 0
-85 -88 0
-85 -89 0
-85 -90 0
-86 -87 0
-86 -88 0
-86 -89 0
-86 -90 0
-87 -88 0
-87 -89 0
-87 -90 0
-88 -89 0
-88 -90 0
-89 -90 0
-91 -92 0
-91 -93 0
-91 -94 0
-91 -95 0
-91 -96 0
-91 -97 0
-91 -98 0
-91 -99 0
-91 -100 0
-91 -101 0
-91 -102 0
-91 -103 0
-91 -104 0
-91 -105 0
-91 -106 0
-91 -107 0
-91 -108 0
-91 -109 0
-91 -110 0
-91 -111 0
-91 -112 0
-92 -93 0
-92 -94 0
-92 -95 0
-92 -96 0
-92 -97 0
-92 -98 0
-92 -99 0
-92 -100 0
-92 -101 0
-92 -102 0
-92 -103 0
-92 -104 0
-92 -105 0
-92 -106 0
-92 -107 0
-92 -108 0
-92 -109 0
-92 -110 0
-92 -111 0
-92 -112 0
-93 -94 0
-93 -95 0
-93 -96 0
-93 -97 0
-93 -98 0
-93 -99 0
-93 -100 0
-93 -101 0
-93 -102 0
-93 -103 0
-93 -104 0
-93 -105 0
-93 -106 0
-93 -107 0
-93 -108 0
-93 -109 0
-93 -110 0
-93 -111 0
-93 -112 0
-94 -95 0
-94 -96 0
-94 -97 0
-94 -98 0
-94 -99 0
-94 -100 0
-94 -101 0
-94 -102 0
-94 -103 0
-94 -104 0
-94 -105 0
-94 -106 0
-94 -107 0
-94 -108 0
-94 -109 0
-94 -110 0
-94 -111 0
-94 -112 0
-95 -96 0
-95 -97 0
-95 -98 0
-95 -99 0
-95 -100 0
-95 -101 0
-95 -102 0
-95 -103 0
-95 -104 0
-95 -105 0
-95 -106 0
-95 -107 0
-95 -108 0
-95 -109 0
-95 -110 0
-95 -111 0
-95 -112 0
-96 -97 0
-96 -98 0
-96 -99 0
-96 -100 0
-96 -101 0
-96 -102 0
-96 -103 0
-96 -104 0
-96 -105 0
-96 -106 0
-96 -107 0
-96 -108 0
-96 -109 0
-96 -110 0
-96 -111 0
-96 -112 0
-97 -98 0
-97 -99 0
-97 -100 0
-97 -101 0
-97 -102 0
-97 -103 0
-97 -104 0
-97 -105 0
-97 -106 0
-97 -107 0
-97 -108 0
-97 -109 0
-97 -110 0
-97 -111 0
-97 -112 0
-98 -99 0
-98 -100 0
-98 -101 0
-98 -102 0
-98 -103 0
-98 -104 0
-98 -105 0
-98 -106 0
-98 -107 0
-98 -108 0
-98 -109 0
-98 -110 0
-98 -111 0
-98 -112 0
-99 -100 0
-99 -101 0
-99 -102 0
-99 -103 0
-99 -104 0
-99 -105 0
-99 -106 0
-99 -107 0
-99 -108 0
-99 -109 0
-99 -110 0
-99 -111 0
-99 -112 0
-100 -101 0
-100 -102 0
-100 -103 0
-100 -104 0
-100 -105 0
-100 -106 0
-100 -107 0
-100 -108 0
-100 -109 0
-100 -110 0
-100 -111 0
-100 -112 0
-101 -102 0
-101 -103 0
-101 -104 0
-101 -105 0
-101 -106 0
-101 -107 0
-101 -108 0
-101 -109 0
-101 -110 0
-101 -111 0
-101 -112 0
-102 -103 0
-102 -104 0
-102 -105 0
-102 -106 0
-102 -107 0
-102 -108 0
-102 -109 0
-102 -110 0
-102 -111 0
-102 -112 0
-103 -104 0
-103 -105 0
-103 -106 0
-103 -107 0
-103 -108 0
-103 -109 0
-103 -110 0
-103 -111 0
-103 -112 0
-104 -105 0
-104 -106 0
-104 -107 0
-104 -108 0
-104 -109 0
-104 -110 0
-104 -111 0
-104 -112 0
-105 -106 0
-105 -107 0
-105 -108 0
-105 -109 0
-105 -110 0
-105 -111 0
-105 -112 0
-106 -107 0
-106 -108 0
-106 -109 0
-106 -110 0
-106 -111 0
-106 -112 0
-107 -108 0
-107 -109 0
-107 -110 0
-107 -111 0
-107 -112 0
-108 -109 0
-108 -110 0
-108 -111 0
-108 -112 0
-109 -110 0
-109 -111 0
-109 -112 0
-110 -111 0
-110 -112 0
-111 -112 0
-113 -114 0
-113 -115 0
-113 -116 0
-113 -117 0
-113 -118 0
-113 -119 0
-113 -120 0
-113 -121 0
-113 -122 0
-113 -123 0
-113 -124 0
-113 -125 0
-113 -126 0
-113 -127 0
-113 -128 0
-113 -129 0
-113 -130 0
-113 -131 0
-114 -115 0
-114 -116 0
-114 -117 0
-114 -118 0
-114 -119 0
-114 -120 0
-114 -121 0
-114 -122 0
-114 -123 0
-114 -124 0
-114 -125 0
-114 -126 0
-114 -127 0
-114 -128 0
-114 -129 0
-114 -130 0
-114 -131 0
-115 -116 0
-115 -117 0
-115 -118 0
-115 -119 0
-115 -120 0
-115 -121 0
-115 -122 0
-115 -123 0
-115 -124 0
-115 -125 0
-115 -126 0
-115 -127 0
-115 -128 0
-115 -129 0
-115 -130 0
-115 -131 0
-116 -117 0
-116 -118 0
-116 -119 0
-116 -120 0
-116 -121 0
-116 -122 0
-116 -123 0
-116 -124 0
-116 -125 0
-116 -126 0
-116 -127 0
-116 -128 0
-116 -129 0
-116 -130 0
-116 -131 0
-117 -118 0
-117 -119 0
-117 -120 0
-117 -121 0
-117 -122 0
-117 -123 0
-117 -124 0
-117 -125 0
-117 -126 0
-117 -127 0
-117 -128 0
-117 -129 0
-117 -130 0
-117 -131 0
-118 -119 0
-118 -120 0
-118 -121 0
-118 -122 0
-118 -123 0
-118 -124 0
-118 -125 0
-118 -126 0
-118 -127 0
-118 -128 0
-118 -129 0
-118 -130 0
-118 -131 0
-119 -120 0
-119 -121 0
-119 -122 0
-119 -123 0
-119 -124 0
-119 -125 0
-119 -126 0
-119 -127 0
-119 -128 0
-119 -129 0
-119 -130 0
-119 -131 0
-120 -121 0
-120 -122 0
-120 -123 0
-120 -124 0
-120 -125 0
-120 -126 0
-120 -127 0
-120 -128 0
-120 -129 0
-120 -130 0
-120 -131 0
-121 -122 0
-121 -123 0
-121 -124 0
-121 -125 0
-121 -126 0
-121 -127 0
-121 -128 0
-121 -129 0
-121 -130 0
-121 -131 0
-122 -123 0
-122 -124 0
-122 -125 0
-122 -126 0
-122 -127 0
-122 -128 0
-122 -129 0
-122 -130 0
-122 -131 0
-123 -124 0
-123 -125 0
-123 -126 0
-123 -127 0
-123 -128 0
-123 -129 0
-123 -130 0
-123 -131 0
-124 -125 0
-124 -126 0
-124 -127 0
-124 -128 0
-124 -129 0
-124 -130 0
-124 -131 0
-125 -126 0
-125 -127 0
-125 -128 0
-125 -129 0
-125 -130 0
-125 -131 0
-126 -127 0
-126 -128 0
-126 -129 0
-126 -130 0
-126 -131 0
-127 -128 0
-127 -129 0
-127 -130 0
-127 -131 0
-128 -129 0
-128 -130 0
-128 -131 0
-129 -130 0
-129 -131 0
-130 -131 0
-132 -133 0
-132 -134 0
-132 -135 0
-132 -136 0
-132 -137 0
-132 -138 0
-132 -139 0
-132 -140 0
-132 -141 0
-132 -142 0
-132 -143 0
-132 -144 0
-133 -134 0
-133 -135 0
-133 -136 0
-133 -137 0
-133 -138 0
-133 -139 0
-133 -140 0
-133 -141 0
-133 -142 0
-133 -143 0
-133 -144 0
-134 -135 0
-134 -136 0
-134 -137 0
-134 -138 0
-134 -139 0
-134 -140 0
-134 -141 0
-134 -142 0
-134 -143 0
-134 -144 0
-135 -136 0
-135 -137 0
-135 -138 0
-135 -139 0
-135 -140 0
-135 -141 0
-135 -142 0
-135 -143 0
-135 -144 0
-136 -137 0
-136 -138 0
-136 -139 0
-136 -140 0
-136 -141 0
-136 -142 0
-136 -143 0
-136 -144 0
-137 -138 0
-137 -139 0
-137 -140 0
-137 -141 0
-137 -142 0
-137 -143 0
-137 -144 0
-138 -139 0
-138 -140 0
-138 -141 0
-138 -142 0
-138 -143 0
-138 -144 0
-139 -140 0
-139 -141 0
-139 -142 0
-139 -143 0
-139 -144 0
-140 -141 0
-140 -142 0
-140 -143 0
-140 -144 0
-141 -142 0
-141 -143 0
-141 -144 0
-142 -143 0
-142 -144 0
-143 -144 0
-145 -146 0
-145 -147 0
-145 -148 0
-145 -149 0
-145 -150 0
-146 -147 0
-146 -148 0
-146 -149 0
-146 -150 0
-147 -148 0
-147 -149 0
-147 -150 0
-148 -149 0
-148 -150 0
-149 -150 0
-151 -152 0
-151 -153 0
-151 -154 0
-151 -155 0
-151 -156 0
-151 -157 0
-151 -158 0
-151 -159 0
-151 -160 0
-151 -161 0
-151 -162 0
-151 -163 0
-152 -153 0
-152 -154 0
-152 -155 0
-152 -156 0
-152 -157 0
-152 -158 0
-152 -159 0
-152 -160 0
-152 -161 0
-152 -162 0
-152 -163 0
-153 -154 0
-153 -155 0
-153 -156 0
-153 -157 0
-153 -158 0
-153 -159 0
-153 -160 0
-153 -161 0
-153 -162 0
-153 -163 0
-154 -155 0
-154 -156 0
-154 -157 0
-154 -158 0
-154 -159 0
-154 -160 0
-154 -161 0
-154 -162 0
-154 -163 0
-155 -156 0
-155 -157 0
-155 -158 0
-155 -159 0
-155 -160 0
-155 -161 0
-155 -162 0
-155 -163 0
-156 -157 0
-156 -158 0
-156 -159 0
-156 -160 0
-156 -161 0
-156 -162 0
-156 -163 0
-157 -158 0
-157 -159 0
-157 -160 0
-157 -161 0
-157 -162 0
-157 -163 0
-158 -159 0
-158 -160 0
-158 -161 0
-158 -162 0
-158 -163 0
-159 -160 0
-159 -161 0
-159 -162 0
-159 -163 0
-160 -161 0
-160 -162 0
-160 -163 0
-161 -162 0
-161 -163 0
-162 -163 0
-164 -165 0
-164 -166 0
-164 -167 0
-164 -168 0
-164 -169 0
-164 -170 0
-164 -171 0
-164 -172 0
-164 -173 0
-164 -174 0
-164 -175 0
-164 -176 0
-164 -177 0
-164 -178 0
-164 -179 0
-164 -180 0
-164 -181 0
-164 -182 0
-165 -166 0
-165 -167 0
-165 -168 0
-165 -169 0
-165 -170 0
-165 -171 0
-165 -172 0
-165 -173 0
-165 -174 0
-165 -175 0
-165 -176 0
-165 -177 0
-165 -178 0
-165 -179 0
-165 -180 0
-165 -181 0
-165 -182 0
-166 -167 0
-166 -168 0
-166 -169 0
-166 -170 0
-166 -171 0
-166 -172 0
-166 -173 0
-166 -174 0
-166 -175 0
-166 -176 0
-166 -177 0
-166 -178 0
-166 -179 0
-166 -180 0
-166 -181 0
-166 -182 0
-167 -168 0
-167 -169 0
-167 -170 0
-167 -171 0
-167 -172 0
-167 -173 0
-167 -174 0
-167 -175 0
-167 -176 0
-167 -177 0
-167 -178 0
-167 -179 0
-167 -180 0
-167 -181 0
-167 -182 0
-168 -169 0
-168 -170 0
-168 -171 0
-168 -172 0
-168 -173 0
-168 -174 0
-168 -175 0
-168 -176 0
-168 -177 0
-168 -178 0
-168 -179 0
-168 -180 0
-168 -181 0
-168 -182 0
-169 -170 0
-169 -171 0
-169 -172 0
-169 -173 0
-169 -174 0
-169 -175 0
-169 -176 0
-169 -177 0
-169 -178 0
-169 -179 0
-169 -180 0
-169 -181 0
-169 -182 0
-170 -171 0
-170 -172 0
-170 -173 0
-170 -174 0
-170 -175 0
-170 -176 0
-170 -177 0
-170 -178 0
-170 -179 0
-170 -180 0
-170 -181 0
-170 -182 0
-171 -172 0
-171 -173 0
-171 -174 0
-171 -175 0
-171 -176 0
-171 -177 0
-171 -178 0
-171 -179 0
-171 -180 0
-171 -181 0
-171 -182 0
-172 -173 0
-172 -174 0
-172 -175 0
-172 -176 0
-172 -177 0
-172 -178 0
-172 -179 0
-172 -180 0
-172 -181 0
-172 -182 0
-173 -174 0
-173 -175 0
-173 -176 0
-173 -177 0
-173 -178 0
-173 -179 0
-173 -180 0
-173 -181 0
-173 -182 0
-174 -175 0
-174 -176 0
-174 -177 0
-174 -178 0
-174 -179 0
-174 -180 0
-174 -181 0
-174 -182 0
-175 -176 0
-175 -177 0
-175 -178 0
-175 -179 0
-175 -180 0
-175 -181 0
-175 -182 0
-176 -177 0
-176 -178 0
-176 -179 0
-176 -180 0
-176 -181 0
-176 -182 0
-177 -178 0
-177 -179 0
-177 -180 0
-177 -181 0
-177 -182 0
-178 -179 0
-178 -180 0
-178 -181 0
-178 -182 0
-179 -180 0
-179 -181 0
-179 -182 0
-180 -181 0
-180 -182 0
-181 -182 0
-183 -184 0
-183 -185 0
-183 -186 0
-183 -187 0
-183 -188 0
-183 -189 0
-183 -190 0
-183 -191 0
-183 -192 0
-183 -193 0
-183 -194 0
-183 -195 0
-183 -196 0
-183 -197 0
-183 -198 0
-184 -185 0
-184 -186 0
-184 -187 0
-184 -188 0
-184 -189 0
-184 -190 0
-184 -191 0
-184 -192 0
-184 -193 0
-184 -194 0
-184 -195 0
-184 -196 0
-184 -197 0
-184 -198 0
-185 -186 0
-185 -187 0
-185 -188 0
-185 -189 0
-185 -190 0
-185 -191 0
-185 -192 0
-185 -193 0
-185 -194 0
-185 -195 0
-185 -196 0
-185 -197 0
-185 -198 0
-186 -187 0
-186 -188 0
-186 -189 0
-186 -190 0
-186 -191 0
-186 -192 0
-186 -193 0
-186 -194 0
-186 -195 0
-186 -196 0
-186 -197 0
-186 -198 0
-187 -188 0
-187 -189 0
-187 -190 0
-187 -191 0
-187 -192 0
-187 -193 0
-187 -194 0
-187 -195 0
-187 -196 0
-187 -197 0
-187 -198 0
-188 -189 0
-188 -190 0
-188 -191 0
-188 -192 0
-188 -193 0
-188 -194 0
-188 -195 0
-188 -196 0
-188 -197 0
-188 -198 0
-189 -190 0
-189 -191 0
-189 -192 0
-189 -193 0
-189 -194 0
-189 -195 0
-189 -196 0
-189 -197 0
-189 -198 0
-190 -191 0
-190 -192 0
-190 -193 0
-190 -194 0
-190 -195 0
-190 -196 0
-190 -197 0
-190 -198 0
-191 -192 0
-191 -193 0
-191 -194 0
-191 -195 0
-191 -196 0
-191 -197 0
-191 -198 0
-192 -193 0
-192 -194 0
-192 -195 0
-192 -196 0
-192 -197 0
-192 -198 0
-193 -194 0
-193 -195 0
-193 -196 0
-193 -197 0
-193 -198 0
-194 -195 0
-194 -196 0
-194 -197 0
-194 -198 0
-195 -196 0
-195 -197 0
-195 -198 0
-196 -197 0
-196 -198 0
-197 -198 0
-199 -200 0
-199 -201 0
-199 -202 0
-199 -203 0
-199 -204 0
-199 -205 0
-199 -206 0
-199 -207 0
-199 -208 0
-200 -201 0
-200 -202 0
-200 -203 0
-200 -204 0
-200 -205 0
-200 -206 0
-200 -207 0
-200 -208 0
-201 -202 0
-201 -203 0
-201 -204 0
-201 -205 0
-201 -206 0
-201 -207 0
-201 -208 0
-202 -203 0
-202 -204 0
-202 -205 0
-202 -206 0
-202 -207 0
-202 -208 0
-203 -204 0
-203 -205 0
-203 -206 0
-203 -207 0
-203 -208 0
-204 -205 0
-204 -206 0
-204 -207 0
-204 -208 0
-205 -206 0
-205 -207 0
-205 -208 0
-206 -207 0
-206 -208 0
-207 -208 0
-209 -210 0
-209 -211 0
-209 -212 0
-210 -211 0
-210 -212 0
-211 -212 0
-213 -214 0
-213 -215 0
-213 -216 0
-213 -217 0
-213 -218 0
-213 -219 0
-213 -220 0
-213 -221 0
-214 -215 0
-214 -216 0
-214 -217 0
-214 -218 0
-214 -219 0
-214 -220 0
-214 -221 0
-215 -216 0
-215 -217 0
-215 -218 0
-215 -219 0
-215 -220 0
-215 -221 0
-216 -217 0
-216 -218 0
-216 -219 0
-216 -220 0
-216 -221 0
-217 -218 0
-217 -219 0
-217 -220 0
-217 -221 0
-218 -219 0
-218 -220 0
-218 -221 0
-219 -220 0
-219 -221 0
-220 -221 0
-222 -223 0
-222 -224 0
-222 -225 0
-222 -226 0
-222 -227 0
-222 -228 0
-222 -229 0
-222 -230 0
-222 -231 0
-222 -232 0
-222 -233 0
-223 -224 0
-223 -225 0
-223 -226 0
-223 -227 0
-223 -228 0
-223 -229 0
-223 -230 0
-223 -231 0
-223 -232 0
-223 -233 0
-224 -225 0
-224 -226 0
-224 -227 0
-224 -228 0
-224 -229 0
-224 -230 0
-224 -231 0
-224 -232 0
-224 -233 0
-225 -226 0
-225 -227 0
-225 -228 0
-225 -229 0
-225 -230 0
-225 -231 0
-225 -232 0
-225 -233 0
-226 -227 0
-226 -228 0
-226 -229 0
-226 -230 0
-226 -231 0
-226 -232 0
-226 -233 0
-227 -228 0
-227 -229 0
-227 -230 0
-227 -231 0
-227 -232 0
-227 -233 0
-228 -229 0
-228 -230 0
-228 -231 0
-228 -232 0
-228 -233 0
-229 -230 0
-229 -231 0
-229 -232 0
-229 -233 0
-230 -231 0
-230 -232 0
-230 -233 0
-231 -232 0
-231 -233 0
-232 -233 0
-234 -235 0
-234 -236 0
-234 -237 0
-234 -238 0
-234 -239 0
-234 -240 0
-234 -241 0
-234 -242 0
-235 -236 0
-235 -237 0
-235 -238 0
-235 -239 0
-235 -240 0
-235 -241 0
-235 -242 0
-236 -237 0
-236 -238 0
-236 -239 0
-236 -240 0
-236 -241 0
-236 -242 0
-237 -238 0
-237 -239 0
-237 -240 0
-237 -241 0
-237 -242 0
-238 -239 0
-238 -240 0
-238 -241 0
-238 -242 0
-239 -240 0
-239 -241 0
-239 -242 0
-240 -241 0
-240 -242 0
-241 -242 0
-243 -244 0
-243 -245 0
-243 -246 0
-243 -247 0
-244 -245 0
-244 -246 0
-244 -247 0
-245 -246 0
-245 -247 0
-246 -247 0
1 4 8 15 26 31 38 51 72 80 93 115 145 153 166 185 0
-1 -4 0
-1 -8 0
-1 -15 0
-1 -26 0
-1 -31 0
-1 -38 0
-1 -51 0
-1 -72 0
-1 -80 0
-1 -93 0
-1 -115 0
-1 -145 0
-1 -153 0
-1 -166 0
-1 -185 0
-4 -8 0
-4 -15 0
-4 -26 0
-4 -31 0
-4 -38 0
-4 -51 0
-4 -72 0
-4 -80 0
-4 -93 0
-4 -115 0
-4 -145 0
-4 -153 0
-4 -166 0
-4 -185 0
-8 -15 0
-8 -26 0
-8 -31 0
-8 -38 0
-8 -51 0
-8 -72 0
-8 -80 0
-8 -93 0
-8 -115 0
-8 -145 0
-8 -153 0
-8 -166 0
-8 -185 0
-15 -26 0
-15 -31 0
-15 -38 0
-15 -51 0
-15 -72 0
-15 -80 0
-15 -93 0
-15 -115 0
-15 -145 0
-15 -153 0
-15 -166 0
-15 -185 0
-26 -31 0
-26 -38 0
-26 -51 0
-26 -72 0
-26 -80 0
-26 -93 0
-26 -115 0
-26 -145 0
-26 -153 0
-26 -166 0
-26 -185 0
-31 -38 0
-31 -51 0
-31 -72 0
-31 -80 0
-31 -93 0
-31 -115 0
-31 -145 0
-31 -153 0
-31 -166 0
-31 -185 0
-38 -51 0
-38 -72 0
-38 -80 0
-38 -93 0
-38 -115 0
-38 -145 0
-38 -153 0
-38 -166 0
-38 -185 0
-51 -72 0
-51 -80 0
-51 -93 0
-51 -115 0
-51 -145 0
-51 -153 0
-51 -166 0
-51 -185 0
-72 -80 0
-72 -93 0
-72 -115 0
-72 -145 0
-72 -153 0
-72 -166 0
-72 -185 0
-80 -93 0
-80 -115 0
-80 -145 0
-80 -153 0
-80 -166 0
-80 -185 0
-93 -115 0
-93 -145 0
-93 -153 0
-93 -166 0
-93 -185 0
-115 -145 0
-115 -153 0
-115 -166 0
-115 -185 0
-145 -153 0
-145 -166 0
-145 -185 0
-153 -166 0
-153 -185 0
-166 -185 0
2 6 10 17 28 35 42 55 74 84 97 119 147 157 170 189 0
-2 -6 0
-2 -10 0
-2 -17 0
-2 -28 0
-2 -35 0
-2 -42 0
-2 -55 0
-2 -74 0
-2 -84 0
-2 -97 0
-2 -119 0
-2 -147 0
-2 -157 0
-2 -170 0
-2 -189 0
-6 -10 0
-6 -17 0
-6 -28 0
-6 -35 0
-6 -42 0
-6 -55 0
-6 -74 0
-6 -84 0
-6 -97 0
-6 -119 0
-6 -147 0
-6 -157 0
-6 -170 0
-6 -189 0
-10 -17 0
-10 -28 0
-10 -35 0
-10 -42 0
-10 -55 0
-10 -74 0
-10 -84 0
-10 -97 0
-10 -119 0
-10 -147 0
-10 -157 0
-10 -170 0
-10 -189 0
-17 -28 0
-17 -35 0
-17 -42 0
-17 -55 0
-17 -74 0
-17 -84 0
-17 -97 0
-17 -119 0
-17 -147 0
-17 -157 0
-17 -170 0
-17 -189 0
-28 -35 0
-28 -42 0
-28 -55 0
-28 -74 0
-28 -84 0
-28 -97 0
-28 -119 0
-28 -147 0
-28 -157 0
-28 -170 0
-28 -189 0
-35 -42 0
-35 -55 0
-35 -74 0
-35 -84 0
-35 -97 0
-35 -119 0
-35 -147 0
-35 -157 0
-35 -170 0
-35 -189 0
-42 -55 0
-42 -74 0
-42 -84 0
-42 -97 0
-42 -119 0
-42 -147 0
-42 -157 0
-42 -170 0
-42 -189 0
-55 -74 0
-55 -84 0
-55 -97 0
-55 -119 0
-55 -147 0
-55 -157 0
-55 -170 0
-55 -189 0
-74 -84 0
-74 -97 0
-74 -119 0
-74 -147 0
-74 -157 0
-74 -170 0
-74 -189 0
-84 -97 0
-84 -119 0
-84 -147 0
-84 -157 0
-84 -170 0
-84 -189 0
-97 -119 0
-97 -147 0
-97 -157 0
-97 -170 0
-97 -189 0
-119 -147 0
-119 -157 0
-119 -170 0
-119 -189 0
-147 -157 0
-147 -170 0
-147 -189 0
-157 -170 0
-157 -189 0
-170 -189 0
11 18 23 44 57 67 102 123 138 0
-11 -18 0
-11 -23 0
-11 -44 0
-11 -57 0
-11 -67 0
-11 -102 0
-11 -123 0
-11 -138 0
-18 -23 0
-18 -44 0
-18 -57 0
-18 -67 0
-18 -102 0
-18 -123 0
-18 -138 0
-23 -44 0
-23 -57 0
-23 -67 0
-23 -102 0
-23 -123 0
-23 -138 0
-44 -57 0
-44 -67 0
-44 -102 0
-44 -123 0
-44 -138 0
-57 -67 0
-57 -102 0
-57 -123 0
-57 -138 0
-67 -102 0
-67 -123 0
-67 -138 0
-102 -123 0
-102 -138 0
-123 -138 0
12 19 24 46 59 69 107 127 141 0
-12 -19 0
-12 -24 0
-12 -46 0
-12 -59 0
-12 -69 0
-12 -107 0
-12 -127 0
-12 -141 0
-19 -24 0
-19 -46 0
-19 -59 0
-19 -69 0
-19 -107 0
-19 -127 0
-19 -141 0
-24 -46 0
-24 -59 0
-24 -69 0
-24 -107 0
-24 -127 0
-24 -141 0
-46 -59 0
-46 -69 0
-46 -107 0
-46 -127 0
-46 -141 0
-59 -69 0
-59 -107 0
-59 -127 0
-59 -141 0
-69 -107 0
-69 -127 0
-69 -141 0
-107 -127 0
-107 -141 0
-127 -141 0
13 20 25 48 61 71 112 131 144 0
-13 -20 0
-13 -25 0
-13 -48 0
-13 -61 0
-13 -71 0
-13 -112 0
-13 -131 0
-13 -144 0
-20 -25 0
-20 -48 0
-20 -61 0
-20 -71 0
-20 -112 0
-20 -131 0
-20 -144 0
-25 -48 0
-25 -61 0
-25 -71 0
-25 -112 0
-25 -131 0
-25 -144 0
-48 -61 0
-48 -71 0
-48 -112 0
-48 -131 0
-48 -144 0
-61 -71 0
-61 -112 0
-61 -131 0
-61 -144 0
-71 -112 0
-71 -131 0
-71 -144 0
-112 -131 0
-112 -144 0
-131 -144 0
